107562
105718
105718
105234
105234
105234
103721
103721
103721
103054
101218
101218
100931
100349
95345.5
95345.5
95345.5
95345.5
95345.5
95345.5
95345.5
95345.5
95345.5
95345.5
95345.5
95345.5
94106
94106
94106
93126.7
90073.1
89472.4
89472.4
89472.4
89472.4
89472.4
89472.4
89472.4
86124.6
86124.6
86124.6
86124.6
86124.6
86124.6
86124.6
86124.6
86124.6
86124.6
84043
84043
83133.1
83133.1
83133.1
83133.1
82827.3
82827.3
82827.3
82827.3
82475.1
82475.1
82475.1
82475.1
82475.1
80628.3
79875.2
79875.2
79875.2
79875.2
79875.2
79875.2
79875.2
79875.2
79875.2
79875.2
79875.2
79875.2
79875.2
79875.2
79781.9
79781.9
79781.9
79781.9
78984
78984
77692.5
77214
76753.1
76753.1
76753.1
76753.1
76753.1
76718.5
76718.5
76627
76627
76627
76627
76627
76429.2
76429.2
